(declare-rel interface_StateMachine_39_0 (Int))
(declare-rel function_invariant_38_0 (Int))
(declare-rel block_37_0 (Int))
(declare-rel constructor_StateMachine_39_0 ())
(declare-rel function_g_28_0 (Int))
(declare-rel block_15_0 (Int))
(declare-rel error_1 ())
(declare-rel function_f_16_0 (Int))
(declare-rel block_27_0 (Int))
(declare-rel function_f_16_1 (Int))
(declare-rel function_g_28_1 (Int))
(declare-rel function_invariant_38_1 (Int))
(declare-var A Int)
(declare-var B Int)
(declare-var C (Array Int Int))
(declare-var D Int)
(declare-var E Int)
(declare-var F Int)
(declare-var G Bool)
(declare-var H Int)
(declare-var I Int)
(declare-var J Int)
(declare-var K Int)
(declare-var L Bool)
(declare-var M Int)
(declare-var N Int)
(declare-var O Int)
(declare-var P Int)
(declare-var Q Bool)
(declare-var R Int)
(declare-var S Int)
(rule (! constructor_StateMachine_39_0 :named constructor_StateMachine_39))
(rule (! (=> (and constructor_StateMachine_39_0 (= A 0) true)
    (interface_StateMachine_39_0 A)) :named constructor_StateMachine_39_0_to_interface_StateMachine_39_0))
(rule (! (=> (and (interface_StateMachine_39_0 A) true true) (function_f_16_0 A)) :named interface_StateMachine_39_0_to_function_f_16_0))
(rule (! (=> (and (function_f_16_0 A) true true) (block_15_0 A)) :named function_f_16_0_to_block_15_0))
(rule (! (=> (and (block_15_0 E)
         (= B (ite G D E))
         (= D J)
         (= J K)
         (= K 1)
         (= G (= I H))
         (= H 0)
         (= I E)
         (<= A
             115792089237316195423570985008687907853269984665640564039457584007913129639935)
         (>= A 0)
         true
         true
         true)
    (function_f_16_1 B)) :named block_15_0_to_function_f_16_1))
(rule (! (=> (and (function_f_16_1 E) true true) (interface_StateMachine_39_0 E)) :named function_f_16_1_to_interface_StateMachine_39_0))
(rule (! (=> (and (interface_StateMachine_39_0 B) true true) (function_g_28_0 B)) :named interface_StateMachine_39_0_to_function_g_28_0))
(rule (! (=> (and (function_g_28_0 B) true true) (block_27_0 B)) :named function_g_28_0_to_block_27_0))
(rule (! (=> (and (block_27_0 E)
         (= B (ite L D E))
         (= D J)
         (= J K)
         (= K 2)
         (= L (= N M))
         (= M 1)
         (= N E)
         (<= B
             115792089237316195423570985008687907853269984665640564039457584007913129639935)
         (>= B 0)
         true
         true
         true)
    (function_g_28_1 B)) :named block_27_0_to_function_g_28_1))
(rule (! (=> (and (function_g_28_1 E) true true) (interface_StateMachine_39_0 E)) :named function_g_28_1_to_interface_StateMachine_39_0))
(rule (! (=> (and (interface_StateMachine_39_0 B) true true) (function_invariant_38_0 B)) :named interface_StateMachine_39_0_to_function_invariant_38_0))
(rule (! (=> (and (function_invariant_38_0 B) true true) (block_37_0 B)) :named function_invariant_38_0_to_block_37_0))
(rule (! (=> (and (block_37_0 E)
         (= L (<= K J))
         (= J 1)
         (= K E)
         (<= B
             115792089237316195423570985008687907853269984665640564039457584007913129639935)
         (>= B 0)
         true
         true
         true
         (not L))
    error_1) :named block_37_0_to_error_1))
(rule (! (=> (and (block_37_0 E)
         (=> true L)
         (= L (<= K J))
         (= J 1)
         (= K E)
         (<= B
             115792089237316195423570985008687907853269984665640564039457584007913129639935)
         (>= B 0)
         true
         true
         true)
    (function_invariant_38_1 E)) :named block_37_0_to_function_invariant_38_1))
(rule (! (=> (and (function_invariant_38_1 E) true true) (interface_StateMachine_39_0 E)) :named function_invariant_38_1_to_interface_StateMachine_39_0))

(query error_1 :print-certificate true)
